linear programming/gurobi/nested L-shape/iter3_main.lp
\ LP format - for model browsing. Use MPS format to capture full model detail.
Minimize
  q_1 + theta_2
Subject To
 R0: 10 q_1 + theta_2 >= -300
 R1: - q_1 + theta_2 >= -375.875
Bounds
 theta_2 >= -600
End
