linear programming/gurobi/nested L-shape/iter3_main.sol
# Objective value = -3.6207954545454550e+02
q_1 6.8977272727272725e+00
theta_2 -3.6897727272727275e+02
